NAME: instance_2711
TYPE: TSP
DIMENSION: 20
EDGE_WEIGHT_TYPE: EUC_2D
NODE_COORD_SECTION
0 68.15 42.76
1 83.99 85.65
2 67.36 92.41
3 9.85 54.93
4 67.37 69.34
5 86.68 28.14
6 22.75 18.64
7 11.07 38.49
8 5.61 6.80
9 18.25 0.47
10 99.49 63.96
11 88.35 79.15
12 73.78 56.95
13 85.57 66.39
14 42.72 28.10
15 97.16 10.42
16 65.94 55.89
17 13.28 26.67
18 44.29 86.05
19 1.13 3.62
EOF
